Read MPS format model from file dat/rmp/DER_96_8192_60.mps
Reading time = 2.05 seconds
: 8288 rows, 69920 columns, 6008076 nonzeros
Gurobi Optimizer version 9.0.0 build v9.0.0rc2 (linux64)
Optimize a model with 8288 rows, 69920 columns and 6008076 nonzeros
Model fingerprint: 0x45e5fe16
Coefficient statistics:
  Matrix range     [4e-05, 1e+01]
  Objective range  [8e-01, 1e+03]
  Bounds range     [5e+04, 5e+04]
  RHS range        [1e+00, 1e+00]
Ordering time: 0.02s

Barrier statistics:
 AA' NZ     : 7.469e+05
 Factor NZ  : 8.372e+05 (roughly 40 MBytes of memory)
 Factor Ops : 8.774e+07 (less than 1 second per iteration)
 Threads    : 1

                  Objective                Residual
Iter       Primal          Dual         Primal    Dual     Compl     Time
   0   2.39932241e+09 -2.47729962e+08  4.10e+07 2.56e-02  5.61e+05     1s
   1   3.97599230e+07 -3.75370874e+07  6.08e+05 1.82e-12  8.88e+03     2s
   2   3.24841893e+06 -9.06071195e+06  4.77e+04 3.64e-12  8.00e+02     2s
   3   2.64944958e+05 -5.84340400e+06  3.04e+03 3.64e-12  1.21e+02     3s
   4   7.90389241e+04 -1.58788118e+06  3.23e+02 3.64e-12  2.51e+01     3s
   5   5.65479305e+04  3.09864870e+04  2.56e-10 3.64e-12  3.65e-01     3s
   6   5.62961584e+04  5.35104168e+04  4.78e-10 3.64e-12  3.98e-02     4s
   7   5.59513022e+04  5.47897647e+04  2.16e-10 1.82e-12  1.66e-02     5s
   8   5.58076394e+04  5.52057605e+04  2.54e-10 1.82e-12  8.60e-03     5s
   9   5.56898503e+04  5.53281795e+04  4.94e-10 1.82e-12  5.17e-03     6s
  10   5.55769465e+04  5.54252146e+04  5.49e-10 3.64e-12  2.17e-03     6s
  11   5.55673828e+04  5.54539158e+04  5.97e-10 1.82e-12  1.62e-03     6s
  12   5.55450469e+04  5.54744998e+04  8.12e-10 3.64e-12  1.01e-03     7s
  13   5.55200699e+04  5.54891620e+04  2.47e-09 1.82e-12  4.41e-04     8s
  14   5.55115730e+04  5.54940955e+04  1.88e-09 1.82e-12  2.50e-04     8s
  15   5.55065426e+04  5.54964126e+04  1.99e-09 1.82e-12  1.45e-04     8s
  16   5.55049734e+04  5.54972041e+04  1.63e-09 1.82e-12  1.11e-04     9s
  17   5.55018855e+04  5.54988506e+04  5.57e-09 3.64e-12  4.33e-05    10s
  18   5.55009765e+04  5.54992129e+04  5.75e-09 1.82e-12  2.52e-05    10s
  19   5.55007928e+04  5.54993457e+04  4.79e-09 1.82e-12  2.07e-05    10s
  20   5.55001020e+04  5.54996157e+04  2.07e-08 3.64e-12  6.95e-06    11s
  21   5.54999582e+04  5.54996550e+04  1.54e-08 1.82e-12  4.33e-06    11s
  22   5.54998283e+04  5.54996798e+04  3.24e-08 1.82e-12  2.12e-06    12s
  23   5.54997807e+04  5.54996986e+04  3.53e-08 1.82e-12  1.17e-06    12s
  24   5.54997237e+04  5.54997099e+04  1.09e-07 3.64e-12  1.97e-07    13s
  25   5.54997125e+04  5.54997117e+04  1.07e-06 3.64e-12  1.18e-08    14s
  26   5.54997119e+04  5.54997118e+04  1.13e-06 2.73e-12  5.32e-10    14s
  27   5.54997119e+04  5.54997118e+04  2.26e-05 3.64e-12  3.37e-12    15s
  28   5.54997118e+04  5.54997118e+04  8.09e-06 3.64e-12  3.81e-15    15s
  29   5.54997118e+04  5.54997118e+04  1.12e-08 3.64e-12  6.65e-18    15s

Barrier solved model in 29 iterations and 15.45 seconds
Optimal objective 5.54997118e+04

Solve time: 15.46099903
Barrier iterations: 29
